n = 12;
budget = 150000;
groceries = [|2910,110,190,190,174,3145|1988,161,210,56,67,3180|880,136,48,16,101,2645|3591,207,225,207,180,2577|816,16,152,16,173,1328|1190,110,30,70,99,3296|3880,48,544,168,124,2979|1809,126,306,9,80,2579|4041,63,117,369,185,2584|3483,81,324,207,98,2518|2478,48,126,198,112,1657|3780,35,91,364,81,3290|];
requirements = [|4395,5080|114,151|600,660|171,204|];